120
150
60
48
51
53
46
48
51
50
60
44
52
41
57
50
56
41
56
49
46
55
53
53
52
54
52
54
42
44
45
45
53
48
59
56
46
52
43
56
55
54
48
51
42
46
43
53
57
48
56
50
50
55
51
56
60
60
53
57
57
46
48
56
43
40
54
54
41
56
60
60
60
47
52
54
56
47
52
52
48
47
42
48
44
57
54
44
49
53
52
50
52
44
45
48
51
44
59
47
56
51
48
47
51
52
54
40
58
45
47
50
44
54
54
46
45
46
45
46
48
48
